* Problem:    SC50A-pow2-prescaled
* Class:      LP
* Rows:       49
* Columns:    77
* Non-zeros:  159
* Format:     Free MPS
*
NAME SC50A-pow2-prescaled
ROWS
 N R0000000
 E R0000001
 E R0000002
 E R0000003
 E R0000004
 E R0000005
 E R0000006
 E R0000007
 E R0000008
 E R0000009
 E R0000010
 E R0000011
 E R0000012
 E R0000013
 E R0000014
 E R0000015
 E R0000016
 E R0000017
 E R0000018
 E R0000019
 E R0000020
 E R0000021
 E R0000022
 E R0000023
 E R0000024
 E R0000025
 E R0000026
 E R0000027
 E R0000028
 E R0000029
 E R0000030
 E R0000031
 E R0000032
 E R0000033
 E R0000034
 E R0000035
 E R0000036
 E R0000037
 E R0000038
 E R0000039
 E R0000040
 E R0000041
 E R0000042
 E R0000043
 E R0000044
 E R0000045
 E R0000046
 E R0000047
 E R0000048
 E R0000049
COLUMNS
 c0 R0000022 1 R0000021 2
 c0 R0000002 -1
 c1 R0000022 2 R0000021 1
 c1 R0000003 -1
 c2 R0000022 12 R0000021 12
 c2 R0000004 -8
 c3 R0000000 -2 R0000005 2.2
 c3 R0000001 2
 c4 R0000028 2 R0000006 2
 c4 R0000001 -2
 c5 R0000023 -1 R0000007 -1
 c5 R0000002 1
 c6 R0000024 -1 R0000008 -1
 c6 R0000003 1
 c7 R0000025 -8 R0000009 -8
 c7 R0000004 8
 c8 R0000026 -1 R0000023 1
 c9 R0000027 -1 R0000024 1
 c10 R0000028 -8 R0000025 8
 c11 R0000027 1 R0000026 2
 c11 R0000007 -1
 c12 R0000027 2 R0000026 1
 c12 R0000008 -1
 c13 R0000027 24 R0000026 24
 c13 R0000009 -16
 c14 R0000010 2.2 R0000006 2
 c14 R0000005 -2
 c15 R0000034 4 R0000011 4
 c15 R0000006 -4
 c16 R0000029 -1 R0000012 -1
 c16 R0000007 1
 c17 R0000030 -1 R0000013 -1
 c17 R0000008 1
 c18 R0000031 -16 R0000014 -16
 c18 R0000009 16
 c19 R0000032 -1 R0000029 1
 c20 R0000033 -1 R0000030 1
 c21 R0000034 -16 R0000031 16
 c22 R0000033 1 R0000032 2
 c22 R0000012 -1
 c23 R0000033 2 R0000032 1
 c23 R0000013 -1
 c24 R0000033 24 R0000032 24
 c24 R0000014 -16
 c25 R0000015 2.2 R0000011 2
 c25 R0000010 -2
 c26 R0000040 8 R0000016 8
 c26 R0000011 -8
 c27 R0000035 -1 R0000017 -1
 c27 R0000012 1
 c28 R0000036 -1 R0000018 -1
 c28 R0000013 1
 c29 R0000037 -16 R0000019 -16
 c29 R0000014 16
 c30 R0000038 -1 R0000035 1
 c31 R0000039 -1 R0000036 1
 c32 R0000040 -16 R0000037 16
 c33 R0000039 1 R0000038 2
 c33 R0000017 -1
 c34 R0000039 2 R0000038 1
 c34 R0000018 -1
 c35 R0000039 12 R0000038 12
 c35 R0000019 -8
 c36 R0000020 2.2 R0000016 2
 c36 R0000015 -2
 c37 R0000046 8 R0000016 -8
 c38 R0000041 -1 R0000017 1
 c39 R0000042 -1 R0000018 1
 c40 R0000043 -8 R0000019 8
 c41 R0000044 -1 R0000041 1
 c42 R0000045 -1 R0000042 1
 c43 R0000046 -8 R0000043 8
 c44 R0000048 0.1 R0000047 -0.8
 c44 R0000045 1 R0000044 2
 c45 R0000048 -1.6 R0000047 0.2
 c45 R0000045 4 R0000044 2
 c46 R0000049 -2 R0000048 0.3
 c46 R0000047 0.3 R0000045 3
 c46 R0000044 3
 c47 R0000049 4 R0000020 -4
 c48 R0000021 1
 c49 R0000022 2
 c50 R0000023 16
 c51 R0000024 4
 c52 R0000025 8
 c53 R0000026 16
 c54 R0000027 4
 c55 R0000028 8
 c56 R0000029 16
 c57 R0000030 8
 c58 R0000031 16
 c59 R0000032 16
 c60 R0000033 8
 c61 R0000034 16
 c62 R0000035 16
 c63 R0000036 8
 c64 R0000037 16
 c65 R0000038 16
 c66 R0000039 8
 c67 R0000040 16
 c68 R0000041 4
 c69 R0000042 4
 c70 R0000043 8
 c71 R0000044 4
 c72 R0000045 4
 c73 R0000046 8
 c74 R0000047 4
 c75 R0000048 2
 c76 R0000049 2
RHS
 RHS1 R0000021 170 R0000022 130
 RHS1 R0000026 170 R0000027 130
 RHS1 R0000032 170 R0000033 130
 RHS1 R0000038 170 R0000039 130
 RHS1 R0000044 170 R0000045 130
ENDATA
